p cnf 1363 1361
c ind 862 863 864 877 884 910 971 972 985 992 0
c ind 996 998 1001 1017 1019 1022 1034 1035 1054 1056 0
c ind 1060 1071 1072 1076 1077 1078 1082 1084 855 970 0
c ind 885 897 856 857 969 860 861 968 1316 1317 0
c ind 1315 1314 1312 1313 1311 1306 1310 1309 1308 1307 0
c ind 1304 1305 1303 1298 1302 1301 1300 1348 1339 1353 0
c ind 1330 1334 1344 1361 1299 1347 1338 1352 1329 1333 0
c ind 1343 1360 1346 1337 1351 1328 1342 1332 1359 1296 0
c ind 1297 1345 1336 1350 1327 1341 1331 1358 1322 1326 0
c ind 1356 1289 1290 1295 1294 1293 1292 1291 1324 1354 0
c ind 1287 1288 1286 1355 1325 1285 1335 1349 1340 1357 0
c ind 1283 1284 858 859 1282 1277 1281 1280 1279 1278 0
c ind 1275 1276 1274 1269 1273 1272 1271 1270 1267 1268 0
c ind 1260 1261 1323 1266 1265 1264 1263 1262 1258 1259 0
c ind 1257 1319 1256 1254 1255 1320 1253 1248 1252 1251 0
c ind 1250 1249 1246 1247 1245 1240 1244 1243 1242 1241 0
c ind 1238 1239 1231 1232 1237 1236 1235 1234 1233 1229 0
c ind 1230 1228 1227 1225 1226 1224 1219 1223 1222 1221 0
c ind 1321 1220 1217 1318 1218 1216 1211 1215 1214 1213 0
c ind 1212 1209 1210 1202 1203 1208 1207 1206 1205 1204 0
c ind 1200 1201 1199 1198 1196 1197 1195 1190 1194 1193 0
c ind 1192 1191 1188 1189 1187 1182 1186 1185 1184 1183 0
c ind 1180 1181 1173 1174 1179 1178 1177 1176 1175 1171 0
c ind 1172 1170 1169 1167 1168 1166 1161 1165 1164 1163 0
c ind 1162 1159 1160 1158 1153 1157 1156 1155 1154 1151 0
c ind 1152 1144 1145 1150 1149 1148 1147 1146 1142 1143 0
c ind 1141 1140 1138 1139 1137 1132 1136 1135 1134 1133 0
c ind 1130 1131 1129 1124 1128 1127 1126 1125 1122 1123 0
c ind 1115 1116 1121 1120 1119 1118 1117 1113 1114 1112 0
c ind 1111 1109 1110 1108 1103 1107 1106 1105 1104 1101 0
c ind 1102 1100 1095 1099 1098 1097 1096 1093 1094 867 0
c ind 1086 1087 1092 1091 1090 1089 1088 1066 1067 1065 0
c ind 1064 1063 1085 1075 1073 1074 1062 1061 1083 1070 0
c ind 1059 1081 1079 1080 1068 1069 1058 1057 1050 1055 0
c ind 1053 1051 1052 1049 1042 1041 1048 1047 1046 1045 0
c ind 1044 1043 1040 1039 1038 1037 1036 854 1029 1028 0
c ind 1026 1027 1025 1024 1030 1031 1023 1021 1032 1020 0
c ind 975 1033 1018 1016 1014 1015 1013 1012 1011 1010 0
c ind 1009 1008 1007 1005 1006 1004 1003 1002 1000 999 0
c ind 997 995 993 994 991 986 990 987 988 982 0
c ind 989 984 980 981 983 979 974 978 976 977 0
c ind 973 967 960 952 966 965 964 963 946 945 0
c ind 944 962 943 961 942 941 940 959 958 957 0
c ind 956 955 954 953 951 950 949 948 947 939 0
c ind 932 924 938 937 936 935 918 917 916 934 0
c ind 915 933 914 913 912 931 930 929 928 927 0
c ind 926 925 923 922 921 920 919 911 909 907 0
c ind 908 898 899 906 905 904 903 902 900 901 0
c ind 894 893 895 896 892 891 890 889 887 888 0
c ind 886 883 882 878 879 880 881 874 876 873 0
c ind 872 875 866 871 865 870 868 869 1 0
c ret 622 623 624 625 626 627 628 629 630 631 0
c ret 632 633 634 635 636 637 638 639 640 641 0
c ret 642 643 644 645 646 647 648 649 650 651 0
c ret 652 653 654 655 656 657 658 659 660 661 0
c ret 662 663 664 665 666 667 668 669 670 671 0
c ret 672 673 674 675 676 677 678 679 680 681 0
c ret 682 683 684 685 686 687 688 689 690 691 0
c ret 692 693 694 695 696 697 698 699 700 701 0
c ret 702 703 704 705 706 707 708 709 710 711 0
c ret 712 713 714 715 716 717 718 719 720 721 0
c ret 722 723 724 725 726 727 728 729 730 731 0
c ret 732 733 734 735 736 737 738 739 740 741 0
c ret 742 743 744 745 746 747 748 749 750 751 0
c ret 752 753 754 755 756 757 758 759 760 761 0
c ret 762 763 764 765 766 767 768 769 770 771 0
c ret 772 773 774 775 776 777 778 779 780 781 0
c ret 782 783 784 785 786 787 788 789 790 791 0
c ret 792 793 794 795 796 797 798 799 800 801 0
c ret 802 803 804 805 806 807 808 809 810 811 0
c ret 812 813 814 815 317 816 817 323 324 325 0
c ret 326 818 327 328 329 330 331 332 333 334 0
c ret 335 336 337 338 339 340 341 342 343 344 0
c ret 345 346 347 348 819 820 349 350 351 821 0
c ret 352 822 353 354 355 356 357 358 359 318 0
c ret 360 361 362 363 364 365 366 367 368 369 0
c ret 823 824 370 371 825 372 826 373 374 375 0
c ret 376 377 378 379 380 381 382 383 384 385 0
c ret 386 827 387 388 389 390 391 392 393 828 0
c ret 829 394 830 395 831 396 397 398 399 400 0
c ret 319 401 402 403 404 405 406 407 408 409 0
c ret 832 410 411 412 413 414 833 415 834 416 0
c ret 417 418 419 835 836 420 421 422 423 424 0
c ret 425 426 427 428 429 430 431 432 433 434 0
c ret 837 435 838 436 437 438 839 439 840 440 0
c ret 320 441 442 443 444 445 446 447 448 449 0
c ret 450 451 452 453 841 454 455 456 842 457 0
c ret 843 458 459 844 845 460 461 462 463 464 0
c ret 465 466 467 468 469 470 471 846 847 472 0
c ret 473 474 475 848 476 477 478 479 480 481 0
c ret 482 483 484 485 486 487 488 489 490 849 0
c ret 491 492 493 494 850 495 851 496 852 853 0
c ret 497 498 499 500 501 502 503 504 505 506 0
c ret 507 508 509 510 511 321 512 513 514 515 0
c ret 516 517 518 519 520 521 522 523 524 525 0
c ret 526 527 528 529 530 531 532 533 534 535 0
c ret 536 537 538 539 540 541 542 543 544 545 0
c ret 546 547 548 549 550 322 551 552 553 554 0
c ret 555 556 557 558 559 560 561 562 563 564 0
c ret 565 566 567 568 569 570 571 572 573 574 0
c ret 575 576 577 578 579 580 581 582 583 584 0
c ret 585 586 587 588 589 590 591 592 593 594 0
c ret 595 596 597 598 599 600 601 602 603 604 0
c ret 605 606 607 608 609 610 611 612 613 614 0
c ret 615 616 617 618 619 620 621 0
2 141 310 -311 0
2 3 310 -311 0
-2 311 0
-2 -310 0
-2 -3 -141 0
3 -4 -65 -131 0
3 4 65 121 0
3 4 65 -131 0
3 -4 -65 121 0
-3 4 -65 0
-3 -4 65 0
-3 -121 131 0
4 -5 -22 0
4 -5 59 0
-4 5 0
-4 22 -59 0
5 6 14 -20 -21 0
-5 -6 0
-5 21 0
-5 20 0
-5 -14 0
6 -7 -8 0
6 -7 -9 -12 0
-6 7 0
-6 8 12 0
-6 8 9 0
7 1115 0
7 -1116 1122 0
7 1116 1123 0
-7 -1115 1116 -1123 0
-7 -1115 -1116 -1122 0
8 1115 0
8 -1116 -1122 0
8 1116 -1123 0
-8 -1115 1116 1123 0
-8 -1115 -1116 1122 0
9 10 0
9 -1132 1138 0
9 1132 1139 0
-9 -10 -1132 -1138 0
-9 -10 1132 -1139 0
8 10 -11 0
-8 -10 0
-10 11 0
11 1124 1131 0
11 -1124 1130 0
-11 -1124 -1130 0
-11 1124 -1131 0
-11 12 -13 0
11 -12 0
-12 13 0
10 13 0
13 1132 -1139 0
13 -1132 -1138 0
-10 -13 1132 1139 0
-10 -13 -1132 1138 0
14 -16 -17 0
14 -15 -17 0
-14 17 0
-14 15 16 0
15 1086 0
15 -1087 -1093 0
15 1087 -1094 0
-15 -1086 1087 1094 0
-15 -1086 -1087 1093 0
-15 16 0
16 -1095 1101 0
16 1095 1102 0
15 -16 -1095 -1101 0
15 -16 1095 -1102 0
17 -18 -19 0
-15 17 -19 0
-17 19 0
15 -17 18 0
-15 18 0
18 1095 -1102 0
18 -1095 -1101 0
15 -18 -1095 1101 0
15 -18 1095 1102 0
19 1086 0
19 -1087 1093 0
19 1087 1094 0
-19 -1086 1087 -1094 0
-19 -1086 -1087 -1093 0
20 -1173 -1231 0
-20 1173 0
-20 1231 0
21 -1144 -1202 -1260 -1289 0
-21 1289 0
-21 1144 0
-21 1260 0
-21 1202 0
22 -23 -58 -1339 0
22 23 -24 -58 0
-22 58 0
-22 -23 1339 0
-22 23 24 0
23 1081 -1083 0
-23 -1081 0
-23 1083 0
24 -25 -1338 0
24 25 -26 0
-24 -25 1338 0
-24 25 26 0
25 1053 -1055 0
-25 -1053 0
-25 1055 0
26 27 50 57 0
26 27 50 -53 0
-26 -27 0
-26 -50 0
-26 53 -57 0
27 -48 854 -1029 0
27 28 854 1029 0
-27 -854 0
-27 48 -1029 0
-27 -28 1029 0
28 -29 -1335 0
-28 1335 0
-28 29 0
29 -30 44 0
-29 30 0
-29 -44 0
30 -37 38 0
30 31 38 -919 0
-30 -38 0
-30 -31 37 0
-30 37 919 0
31 32 0
31 35 -918 0
31 35 924 0
-31 -32 -35 0
-31 -32 918 -924 0
32 -33 34 -912 -919 0
-32 33 0
-32 -34 0
-32 912 0
-32 919 0
33 913 914 915 0
-33 -913 0
-33 -915 0
-33 -914 0
34 916 -917 0
-34 -916 0
-34 917 0
35 36 918 924 -925 0
-35 -918 0
-35 -36 0
-35 925 0
-35 -924 0
36 932 933 0
-36 -932 0
-36 -933 0
33 37 -912 0
34 37 -912 -918 0
-37 912 0
-33 -37 918 0
-33 -34 -37 0
38 40 43 0
38 40 -42 0
38 39 40 0
-38 -40 0
-38 -39 42 -43 0
39 941 942 943 0
-39 -941 0
-39 -943 0
-39 -942 0
39 40 -940 0
40 41 -940 -946 0
-40 940 0
-39 -40 946 0
-39 -40 -41 0
41 944 -945 0
-41 -944 0
-41 945 0
42 952 953 0
42 952 960 961 0
-42 -952 0
-42 -953 -960 0
-42 -953 -961 0
41 43 -940 946 -947 0
-43 947 0
-41 -43 0
-43 940 0
-43 -946 0
44 -45 -886 0
44 -47 -886 0
44 -46 -886 0
-44 886 0
-44 45 46 47 0
45 -887 888 889 0
-45 887 0
-45 -889 0
-45 -888 0
46 892 895 896 0
-46 -892 0
-46 -896 0
-46 -895 0
47 -892 893 894 0
-47 892 0
-47 -894 0
-47 -893 0
48 -49 1336 0
28 48 49 0
-48 -49 -1336 0
-28 -48 49 0
49 995 -997 0
-49 -995 0
-49 997 0
50 -51 -52 -1039 0
50 -51 -52 -1040 0
-50 52 0
-50 51 0
-50 1039 1040 0
51 1042 1043 1044 1045 0
-51 -1045 0
-51 -1044 0
-51 -1042 0
-51 -1043 0
52 -1036 -1037 -1038 1041 0
-52 1038 0
-52 -1041 0
-52 1036 0
-52 1037 0
48 53 -54 0
-48 -53 0
-53 54 0
54 55 56 0
-54 -55 0
-54 -56 0
55 1016 -1018 0
-55 -1016 0
-55 1018 0
56 1008 1009 1010 0
-56 -1008 0
-56 -1010 0
-56 -1009 0
55 57 -854 0
57 -854 1337 0
-57 854 0
-55 -57 -1337 0
58 -1050 1057 0
-58 1050 0
-58 -1057 0
59 -60 -1050 0
24 26 59 0
24 59 -1050 0
26 59 -60 0
-26 -59 1050 0
-24 -59 60 0
60 62 1057 0
60 -61 62 0
60 62 1050 0
-60 -62 0
-60 61 -1050 -1057 0
61 -1058 1059 0
-61 1058 0
-61 -1059 0
62 63 -64 0
-62 -63 0
-62 64 0
63 1061 -1062 -1063 1064 0
-63 -1061 0
-63 -1064 0
-63 1063 0
-63 1062 0
64 -1050 -1057 -1058 1059 0
-64 1058 0
-64 -1059 0
-64 1050 0
-64 1057 0
65 -66 -76 0
65 -66 115 0
-65 66 0
-65 76 -115 0
66 69 -72 0
66 67 68 -72 0
-66 72 0
-66 -68 -69 0
-66 -67 -69 0
67 549 0
67 -550 -556 0
67 550 -557 0
-67 -549 550 557 0
-67 -549 -550 556 0
-67 68 0
68 -558 564 0
68 558 565 0
67 -68 -558 -564 0
67 -68 558 -565 0
-67 69 -70 0
69 -70 -71 0
-69 70 0
67 -69 71 0
70 549 0
70 -550 556 0
70 550 557 0
-70 -549 550 -557 0
-70 -549 -550 -556 0
-67 71 0
71 558 -565 0
71 -558 -564 0
67 -71 -558 564 0
67 -71 558 565 0
72 -73 -74 -75 0
-72 73 0
-72 74 0
-72 75 0
73 -578 -781 0
-73 578 0
-73 781 0
74 -694 -723 -752 0
-74 694 0
-74 723 0
-74 752 0
75 -607 -636 -665 0
-75 607 0
-75 636 0
-75 665 0
76 -77 -114 -831 0
76 77 -78 -114 0
-76 114 0
-76 -77 831 0
-76 77 78 0
77 544 -546 0
-77 -544 0
-77 546 0
78 -79 -830 0
78 79 -80 0
-78 -79 830 0
-78 79 80 0
79 516 -518 0
-79 -516 0
-79 518 0
80 81 106 113 0
80 81 106 -109 0
-80 -81 0
-80 -106 0
-80 109 -113 0
81 -104 317 -492 0
81 82 317 492 0
-81 -317 0
-81 104 -492 0
-81 -82 492 0
82 -83 -827 0
-82 827 0
-82 83 0
83 84 -88 0
-83 -84 0
-83 88 0
84 -85 -349 0
84 -87 -349 0
84 -86 -349 0
-84 349 0
-84 85 86 87 0
85 -350 351 352 0
-85 350 0
-85 -352 0
-85 -351 0
86 355 358 359 0
-86 -355 0
-86 -359 0
-86 -358 0
87 -355 356 357 0
-87 355 0
-87 -357 0
-87 -356 0
88 89 -96 0
88 89 99 -382 0
-88 -89 0
-88 96 -99 0
-88 96 382 0
89 -90 93 0
89 93 403 0
-89 -93 0
-89 90 -403 0
90 -92 406 409 0
90 -91 -92 406 0
-90 -406 0
-90 92 0
-90 91 -409 0
91 407 -408 0
-91 -407 0
-91 408 0
92 404 405 0
-92 -404 0
-92 -405 0
91 -92 93 94 -95 0
92 -93 0
-93 -94 0
-91 -93 0
-93 95 0
94 415 416 0
94 415 423 424 0
-94 -415 0
-94 -416 -423 0
-94 -416 -424 0
95 -403 406 409 -410 0
-95 410 0
-95 -409 0
-95 403 0
-95 -406 0
96 97 -375 0
96 98 -375 -381 0
-96 375 0
-96 -97 381 0
-96 -97 -98 0
97 376 377 378 0
-97 -376 0
-97 -378 0
-97 -377 0
98 379 -380 0
-98 -379 0
-98 380 0
99 100 102 0
-99 -100 0
-99 -102 0
100 -101 381 -387 0
-100 101 0
-100 387 0
-100 -381 0
-97 98 101 -375 -382 0
97 -101 0
-98 -101 0
-101 375 0
-101 382 0
-101 102 -103 -395 0
-101 102 -103 -396 0
-102 103 0
101 -102 0
-102 395 396 0
103 381 387 -388 0
-103 388 0
-103 -387 0
-103 -381 0
104 -105 828 0
82 104 105 0
-104 -105 -828 0
-82 -104 105 0
105 458 -460 0
-105 -458 0
-105 460 0
106 -107 -108 -502 0
106 -107 -108 -503 0
-106 108 0
-106 107 0
-106 502 503 0
107 505 506 507 508 0
-107 -508 0
-107 -507 0
-107 -505 0
-107 -506 0
108 -499 -500 -501 504 0
-108 501 0
-108 -504 0
-108 499 0
-108 500 0
104 109 -110 0
-104 -109 0
-109 110 0
110 111 112 0
-110 -111 0
-110 -112 0
111 471 472 473 0
-111 -471 0
-111 -473 0
-111 -472 0
112 479 -481 0
-112 -479 0
-112 481 0
112 113 -317 0
113 -317 829 0
-113 317 0
-112 -113 -829 0
114 -513 520 0
-114 513 0
-114 -520 0
115 -116 -513 0
78 80 115 0
78 115 -513 0
80 115 -116 0
-80 -115 513 0
-78 -115 116 0
116 118 520 0
116 -117 118 0
116 118 513 0
-116 -118 0
-116 117 -513 -520 0
117 -521 522 0
-117 521 0
-117 -522 0
118 119 -120 0
-118 -119 0
-118 120 0
119 524 -525 -526 527 0
-119 -524 0
-119 -527 0
-119 526 0
-119 525 0
120 -513 -520 -521 522 0
-120 521 0
-120 -522 0
-120 513 0
-120 520 0
-5 121 -122 0
-5 121 130 0
5 -121 0
-121 122 -130 0
23 -58 122 -123 0
-23 -58 122 -1361 0
58 -122 0
23 -122 123 0
-23 -122 1361 0
-25 123 -1360 0
25 123 -124 0
-25 -123 1360 0
25 -123 124 0
50 124 125 129 0
50 124 125 -128 0
-50 -124 0
-124 -125 0
-124 128 -129 0
125 -127 854 -1029 0
125 126 854 1029 0
-125 -854 0
-125 127 -1029 0
-125 -126 1029 0
-29 126 -1357 0
-126 1357 0
29 -126 0
-49 127 1358 0
49 126 127 0
-49 -127 -1358 0
49 -126 -127 0
-54 127 128 0
54 -128 0
-127 -128 0
55 129 -854 0
129 -854 1359 0
-129 854 0
-55 -129 -1359 0
-60 124 130 0
123 130 -1050 0
-60 130 -1050 0
123 124 130 0
60 -123 -130 0
-124 -130 1050 0
-66 131 -132 0
-66 131 140 0
66 -131 0
-131 132 -140 0
77 -114 132 -133 0
-77 -114 132 -853 0
114 -132 0
77 -132 133 0
-77 -132 853 0
-79 133 -852 0
79 133 -134 0
-79 -133 852 0
79 -133 134 0
106 134 135 139 0
106 134 135 -138 0
-106 -134 0
-134 -135 0
-134 138 -139 0
135 -137 317 -492 0
135 136 317 492 0
-135 -317 0
-135 137 -492 0
-135 -136 492 0
-83 136 -849 0
-136 849 0
83 -136 0
-105 137 850 0
105 136 137 0
-105 -137 -850 0
105 -136 -137 0
-110 137 138 0
110 -138 0
-137 -138 0
112 139 -317 0
139 -317 851 0
-139 317 0
-112 -139 -851 0
-116 134 140 0
133 140 -513 0
-116 140 -513 0
133 134 140 0
116 -133 -140 0
-134 -140 513 0
141 142 151 -160 -289 0
141 -142 -151 -160 -289 0
-141 289 0
-141 -142 151 0
-141 160 0
-141 142 -151 0
-5 142 -143 0
-5 142 150 0
5 -142 0
-142 143 -150 0
23 -58 143 -144 0
-23 -58 143 -1334 0
58 -143 0
23 -143 144 0
-23 -143 1334 0
-25 144 -1333 0
25 144 -145 0
-25 -144 1333 0
25 -144 145 0
50 145 146 149 0
50 145 146 -148 0
-50 -145 0
-145 -146 0
-145 148 -149 0
146 -147 854 -1029 0
29 146 854 1029 0
-146 -854 0
-146 147 -1029 0
-29 -146 1029 0
-49 147 1331 0
29 49 147 0
-49 -147 -1331 0
-29 49 -147 0
-54 147 148 0
54 -148 0
-147 -148 0
55 149 -854 0
149 -854 1332 0
-149 854 0
-55 -149 -1332 0
-60 145 150 0
144 150 -1050 0
-60 150 -1050 0
144 145 150 0
60 -144 -150 0
-145 -150 1050 0
-66 151 -152 0
-66 151 159 0
66 -151 0
-151 152 -159 0
77 -114 152 -153 0
-77 -114 152 -826 0
114 -152 0
77 -152 153 0
-77 -152 826 0
-79 153 -825 0
79 153 -154 0
-79 -153 825 0
79 -153 154 0
106 154 155 158 0
106 154 155 -157 0
-106 -154 0
-154 -155 0
-154 157 -158 0
155 -156 317 -492 0
83 155 317 492 0
-155 -317 0
-155 156 -492 0
-83 -155 492 0
-105 156 823 0
83 105 156 0
-105 -156 -823 0
-83 105 -156 0
-110 156 157 0
110 -157 0
-156 -157 0
112 158 -317 0
158 -317 824 0
-158 317 0
-112 -158 -824 0
-116 154 159 0
153 159 -513 0
-116 159 -513 0
153 154 159 0
116 -153 -159 0
-154 -159 513 0
160 161 174 -191 -250 0
160 -161 -174 -191 -250 0
-160 250 0
-160 -161 174 0
-160 191 0
-160 161 -174 0
-66 161 -162 0
-66 161 -172 0
-66 161 -171 0
66 -161 0
-161 162 171 172 0
162 165 -166 0
-110 162 163 -166 0
-162 166 0
-162 -163 -165 0
110 -162 -165 0
-105 163 833 0
105 163 164 0
-105 -163 -833 0
105 -163 -164 0
-83 164 -832 0
-164 832 0
83 -164 0
112 165 -317 0
165 -317 834 0
-165 317 0
-112 -165 -834 0
166 167 -168 0
-166 -167 0
-166 168 0
-163 167 317 -492 0
164 167 317 492 0
-167 -317 0
163 -167 -492 0
-164 -167 492 0
106 168 169 0
-106 -168 0
-168 -169 0
-79 169 -513 0
169 -170 -513 0
-169 513 0
79 -169 170 0
-77 118 170 520 0
-117 118 170 -520 0
-118 -170 0
117 -170 -520 0
77 -170 520 0
-77 -114 171 -836 0
-171 836 0
77 -171 0
114 -171 0
-79 172 -173 -835 0
-172 835 0
79 -172 0
-172 173 0
170 173 -513 0
-173 513 0
-170 -173 0
174 -175 -179 0
174 -175 -189 0
174 -175 -188 0
-174 175 0
-174 179 188 189 0
6 175 -176 0
-6 -175 0
-175 176 0
14 176 -177 0
-14 -176 0
-176 177 0
177 -178 -1231 -1260 -1289 0
-177 178 0
-177 1231 0
-177 1289 0
-177 1260 0
178 -1144 -1173 -1202 0
-178 1144 0
-178 1173 0
-178 1202 0
179 182 -183 0
-54 179 180 -183 0
-179 183 0
-179 -180 -182 0
54 -179 -182 0
-49 180 1341 0
49 180 181 0
-49 -180 -1341 0
49 -180 -181 0
-29 181 -1340 0
-181 1340 0
29 -181 0
55 182 -854 0
182 -854 1342 0
-182 854 0
-55 -182 -1342 0
183 184 -185 0
-183 -184 0
-183 185 0
-180 184 854 -1029 0
181 184 854 1029 0
-184 -854 0
180 -184 -1029 0
-181 -184 1029 0
50 185 186 0
-50 -185 0
-185 -186 0
-25 186 -1050 0
186 -187 -1050 0
-186 1050 0
25 -186 187 0
-23 62 187 1057 0
-61 62 187 -1057 0
-62 -187 0
61 -187 -1057 0
23 -187 1057 0
-23 -58 188 -1344 0
-188 1344 0
23 -188 0
58 -188 0
-25 189 -190 -1343 0
-189 1343 0
25 -189 0
-189 190 0
187 190 -1050 0
-190 1050 0
-187 -190 0
191 192 215 224 -233 0
191 192 -215 -224 -233 0
-191 233 0
-191 -215 224 0
-191 -192 0
-191 215 -224 0
192 193 -204 0
192 -193 204 0
-192 -193 -204 0
-192 193 204 0
193 -197 317 0
111 193 -194 -197 0
-193 197 0
-193 194 -317 0
-111 -193 -317 0
194 436 -848 0
194 -195 -436 0
-194 195 -436 0
-194 436 848 0
-88 195 -810 0
84 -88 195 196 0
88 -195 0
-195 -196 810 0
-84 -195 810 0
196 328 847 0
-196 -328 0
-196 -847 0
197 -198 201 0
-197 198 0
-197 -201 0
-72 198 -199 0
72 -198 0
-198 199 0
69 199 -200 0
68 199 -200 -549 0
-199 200 0
-68 -69 -199 0
-69 -199 549 0
106 120 200 0
106 119 200 0
-106 -200 0
-119 -120 -200 0
194 201 202 0
194 195 201 0
195 201 -202 317 0
-194 -201 202 0
-195 -201 -202 0
-194 -201 -317 0
202 -203 492 493 0
-202 203 0
-202 -493 0
-202 -492 0
203 494 495 496 0
-203 -494 0
-203 -496 0
-203 -495 0
204 -208 854 0
56 204 -205 -208 0
-204 208 0
-204 205 -854 0
-56 -204 -854 0
205 973 -1356 0
205 -206 -973 0
-205 206 -973 0
-205 973 1356 0
-30 206 -1318 0
-30 44 206 207 0
30 -206 0
-206 -207 1318 0
-44 -206 1318 0
207 865 1355 0
-207 -865 0
-207 -1355 0
208 -209 212 0
-208 209 0
-208 -212 0
6 -177 209 -210 0
-209 210 0
177 -209 0
-6 -209 0
17 210 -211 0
16 210 -211 -1086 0
-210 211 0
-16 -17 -210 0
-17 -210 1086 0
50 64 211 0
50 63 211 0
-50 -211 0
-63 -64 -211 0
205 212 213 0
205 206 212 0
206 212 -213 854 0
-205 -212 213 0
-206 -212 -213 0
-205 -212 -854 0
213 -214 1029 1030 0
-213 214 0
-213 -1030 0
-213 -1029 0
214 1031 1032 1033 0
-214 -1031 0
-214 -1033 0
-214 -1032 0
215 -220 317 0
111 215 216 -220 0
-215 220 0
-215 -216 -317 0
-111 -215 -317 0
216 217 -436 0
-88 216 -219 436 0
-216 -217 -436 0
88 -216 436 0
-216 219 436 0
-88 217 -218 0
88 -217 0
-217 218 0
218 -810 -812 0
84 218 810 0
218 -810 -816 0
-84 -218 810 0
-218 -810 812 816 0
219 -810 812 818 0
-219 810 0
-219 -818 0
-219 -812 0
-198 220 -221 222 0
-198 216 220 222 0
198 -220 0
-220 -222 0
-216 -220 221 0
221 492 493 0
-221 -492 0
-221 -493 0
217 222 -223 0
203 -216 222 0
203 222 -223 0
-216 217 222 0
216 -222 223 0
-203 -217 -222 0
-202 223 317 0
-223 -317 0
202 -223 0
224 -229 854 0
56 224 225 -229 0
-224 229 0
-224 -225 -854 0
-56 -224 -854 0
225 226 -973 0
-30 225 -228 973 0
-225 -226 -973 0
30 -225 973 0
-225 228 973 0
-30 226 -227 0
30 -226 0
-226 227 0
227 -1318 -1320 0
44 227 1318 0
227 -1318 -1324 0
-44 -227 1318 0
-227 -1318 1320 1324 0
228 -1318 1320 1326 0
-228 1318 0
-228 -1326 0
-228 -1320 0
-209 229 -230 231 0
-209 225 229 231 0
209 -229 0
-229 -231 0
-225 -229 230 0
230 1029 1030 0
-230 -1029 0
-230 -1030 0
226 231 -232 0
214 -225 231 0
214 231 -232 0
-225 226 231 0
225 -231 232 0
-214 -226 -231 0
-213 232 854 0
-232 -854 0
213 -232 0
233 234 238 243 -245 0
233 -234 -238 243 -245 0
-233 -243 0
-233 234 -238 0
-233 245 0
-233 -234 238 0
-88 -199 234 235 -236 0
-234 236 0
88 -234 0
199 -234 0
-234 -235 0
-111 235 -317 0
-235 317 0
111 -235 0
-73 -74 -75 236 -237 0
-236 237 0
73 -236 0
75 -236 0
74 -236 0
237 -810 812 0
-237 810 0
-237 -812 0
6 -30 -210 238 -239 0
-6 -238 0
-238 239 0
210 -238 0
30 -238 0
-178 239 -240 -241 242 0
-239 241 0
-239 -242 0
178 -239 0
-239 240 0
240 -1231 -1260 -1289 0
-240 1231 0
-240 1260 0
-240 1289 0
241 -1318 1320 0
-241 1318 0
-241 -1320 0
-56 242 -854 0
-242 854 0
56 -242 0
-7 -9 -13 243 244 0
13 -243 0
-243 -244 0
7 -243 0
9 -243 0
8 11 244 0
-8 -244 0
-11 -244 0
18 245 -246 0
16 245 -246 0
19 245 -246 0
-245 246 0
-16 -18 -19 -245 0
31 38 246 -247 0
-37 38 246 -247 0
-246 247 0
-38 -246 0
-31 37 -246 0
44 -211 242 247 -248 0
211 -247 0
-242 -247 0
-44 -247 0
-247 248 0
-21 248 -249 -858 0
-21 248 -249 859 0
-248 249 0
21 -248 0
-248 858 -859 0
249 -856 -1173 -1231 0
249 -857 -1173 -1231 0
-249 1231 0
-249 1173 0
-249 856 857 0
250 251 260 -269 -279 0
250 -251 -260 -269 -279 0
250 251 260 269 279 0
250 -251 -260 269 279 0
-250 251 -260 0
-250 -251 260 0
-250 269 -279 0
-250 -269 279 0
-66 251 -252 0
-66 251 -259 0
-66 251 -258 0
66 -251 0
-251 252 258 259 0
252 255 -256 0
-110 252 253 -256 0
-252 256 0
-252 -253 -255 0
110 -252 -255 0
-105 253 842 0
105 253 254 0
-105 -253 -842 0
105 -253 -254 0
-83 254 -841 0
-254 841 0
83 -254 0
112 255 -317 0
255 -317 843 0
-255 317 0
-112 -255 -843 0
-168 256 257 0
168 -256 0
-256 -257 0
-253 257 317 -492 0
254 257 317 492 0
-257 -317 0
253 -257 -492 0
-254 -257 492 0
-77 -114 258 -845 0
-258 845 0
77 -258 0
114 -258 0
-79 -173 259 -844 0
-259 844 0
79 -259 0
173 -259 0
-176 260 267 -1115 0
-176 260 -261 -1115 0
-260 1115 0
176 -260 0
-260 261 -267 0
261 264 -265 0
-54 261 262 -265 0
-261 265 0
-261 -262 -264 0
54 -261 -264 0
-49 262 1350 0
49 262 263 0
-49 -262 -1350 0
49 -262 -263 0
-29 263 -1349 0
-263 1349 0
29 -263 0
55 264 -854 0
264 -854 1351 0
-264 854 0
-55 -264 -1351 0
-185 265 266 0
185 -265 0
-265 -266 0
-262 266 854 -1029 0
263 266 854 1029 0
-266 -854 0
262 -266 -1029 0
-263 -266 1029 0
23 267 268 0
58 267 268 0
267 268 1353 0
-267 -268 0
-23 -58 -267 -1353 0
-25 -190 268 -1352 0
-268 1352 0
25 -268 0
190 -268 0
-66 169 269 270 0
-66 269 270 278 0
66 -269 0
-269 -270 0
-169 -269 -278 0
270 272 513 0
79 270 271 272 0
-270 -272 0
-270 -271 -513 0
-79 -270 -513 0
-77 271 520 -840 0
77 -271 0
-271 840 0
-271 -520 0
106 272 273 277 0
106 272 273 -276 0
-106 -272 0
-272 -273 0
-272 276 -277 0
273 -275 317 -492 0
273 274 317 492 0
-273 -317 0
-273 275 -492 0
-273 -274 492 0
-83 274 -321 0
-274 321 0
83 -274 0
-105 275 837 0
105 274 275 0
-105 -275 -837 0
105 -274 -275 0
-110 275 276 0
110 -276 0
-275 -276 0
112 277 -317 0
277 -317 838 0
-277 317 0
-112 -277 -838 0
-170 271 278 0
271 278 839 0
-271 -278 0
170 -278 -839 0
-175 186 279 280 0
-175 279 280 288 0
175 -279 0
-279 -280 0
-186 -279 -288 0
280 282 1050 0
25 280 281 282 0
-280 -282 0
-280 -281 -1050 0
-25 -280 -1050 0
-23 281 1057 -1348 0
23 -281 0
-281 1348 0
-281 -1057 0
50 282 283 287 0
50 282 283 -286 0
-50 -282 0
-282 -283 0
-282 286 -287 0
283 -285 854 -1029 0
283 284 854 1029 0
-283 -854 0
-283 285 -1029 0
-283 -284 1029 0
-29 284 -858 0
-284 858 0
29 -284 0
-49 285 1345 0
49 284 285 0
-49 -285 -1345 0
49 -284 -285 0
-54 285 286 0
54 -286 0
-285 -286 0
55 287 -854 0
287 -854 1346 0
-287 854 0
-55 -287 -1346 0
-187 281 288 0
281 288 1347 0
-281 -288 0
187 -288 -1347 0
131 289 290 300 0
-121 289 -290 -300 0
-121 289 290 300 0
131 289 -290 -300 0
-289 290 -300 0
-289 -290 300 0
121 -131 -289 0
-5 290 -291 0
-5 290 299 0
5 -290 0
-290 291 -299 0
23 -58 291 -292 0
-23 -58 291 -1330 0
58 -291 0
23 -291 292 0
-23 -291 1330 0
-25 292 -1329 0
25 292 -293 0
-25 -292 1329 0
25 -292 293 0
50 293 294 298 0
50 293 294 -297 0
-50 -293 0
-293 -294 0
-293 297 -298 0
294 295 -854 1328 0
55 294 295 -854 0
-294 854 0
-294 -295 0
-55 -294 -1328 0
-54 295 296 0
54 -295 0
-295 -296 0
29 49 296 0
-49 296 1327 0
49 296 859 0
-49 -296 -1327 0
-29 49 -296 -859 0
-29 49 297 -859 0
-29 297 -859 1029 0
29 -297 0
-297 859 0
-49 -297 -1029 0
298 854 1327 0
298 854 1029 0
49 298 854 0
-298 -854 0
-49 -298 -1029 -1327 0
-60 293 299 0
292 299 -1050 0
-60 299 -1050 0
292 293 299 0
60 -292 -299 0
-293 -299 1050 0
-66 300 -301 0
-66 300 309 0
66 -300 0
-300 301 -309 0
77 -114 301 -302 0
-77 -114 301 -822 0
114 -301 0
77 -301 302 0
-77 -301 822 0
-79 302 -821 0
79 302 -303 0
-79 -302 821 0
79 -302 303 0
106 303 304 308 0
106 303 304 -307 0
-106 -303 0
-303 -304 0
-303 307 -308 0
304 305 -317 820 0
112 304 305 -317 0
-304 317 0
-304 -305 0
-112 -304 -820 0
-110 305 306 0
110 -305 0
-305 -306 0
83 105 306 0
-105 306 819 0
105 306 322 0
-105 -306 -819 0
-83 105 -306 -322 0
-83 105 307 -322 0
-83 307 -322 492 0
83 -307 0
-307 322 0
-105 -307 -492 0
308 317 819 0
308 317 492 0
105 308 317 0
-308 -317 0
-105 -308 -492 -819 0
-116 303 309 0
302 309 -513 0
-116 309 -513 0
302 303 309 0
116 -302 -309 0
-303 -309 513 0
-68 -70 -71 310 0
68 -310 0
70 -310 0
71 -310 0
84 -200 311 312 -313 0
200 -311 0
-311 -312 0
-84 -311 0
-311 313 0
96 100 102 312 0
-96 -312 0
-102 -312 0
-100 -312 0
89 235 313 -314 -315 0
-89 -313 0
-313 315 0
-313 314 0
-235 -313 0
314 -665 -694 -723 -752 0
-314 752 0
-314 665 0
-314 723 0
-314 694 0
-73 315 -316 -319 0
-73 315 -316 -320 0
-315 316 0
73 -315 0
-315 319 320 0
316 -321 -607 -636 0
316 322 -607 -636 0
-316 636 0
-316 607 0
-316 321 -322 0
1 2 0
-1 -2 0
1362 0

